55251
29, 17, 48, 26, 55, 28, 6, 3, 43, 40, 7, 20, 50, 24, 35, 5, 37, 51, 13, 41, 32, 8, 38, 44, 19, 49, 34, 9, 14, 2, 45, 11, 42, 33, 1, 27, 31, 25, 52, 15, 36, 46, 39, 16, 22, 10, 12, 18, 4, 30, 47, 54, 53, 23, 21
